20	5	2	0
0	1	21	18	13	14	6	20	10	19	12	11	4	1	3	15	5	9	7	2	21	8	16	17	[0 0 0]	[0 0 0]	[0 0 0]	[0 0 0]	[0 0 0]	[0 0 0]	[0 0 0]	[0 0 0]	[0 0 0]	[0 0 0]	[0 0 0]	[0 0 0]	[0 0 0]	[0 0 0]	[0 0 0]	[0 0 0]	[0 0 0]	[0]	[0 0 0]	[0 0 0]	[0 0 0]
1	3	2	11	21	[6 6 4 3 10 6 -5 1 -2]	[2 4 6]
2	3	2	21	5	[3 4 4]	[8 1 -1 10 0 -3 0 10 11]
3	3	4	1	12	17	21	[-100 -80 -168 -138 -101 -33 -72 -84 -51]	[0 4 -1 -7 4 10 0 0 0]	[0 4 1 -2 4 4 0 1 3]	[2 8 1]
4	3	4	18	12	21	14	[10 8 1 -3 0 1 21 13 0]	[-59 -144 -75 -120 -144 -172 -92 -112 -124]	[6 5 9]	[8 0 15 -1 7 4 18 4 15]
5	3	2	21	9	[7 9 9]	[-2 2 -5 2 25 11 8 26 16]
6	3	3	20	21	10	[5 0 5 3 3 6 19 17 24]	[2 2 8]	[5 2 0 1 6 4 5 0 -1]
7	3	3	15	2	21	[-2 4 -3 3 2 0 10 2 17]	[9 7 -1 0 2 1 -5 10 0]	[4 1 6]
8	3	2	21	6	[2 8 3]	[0 5 3 21 15 -5 5 9 -1]
9	3	3	19	21	8	[1 -2 3 4 9 24 -2 -5 17]	[5 8 7]	[1 6 0 9 1 16 -4 16 -2]
10	3	2	3	21	[14 18 6 12 -2 -4 -1 -1 5]	[7 6 3]
11	3	2	13	21	[2 0 2 -3 -4 10 0 21 18]	[1 6 7]
12	3	2	4	21	[16 18 2 10 6 2 0 0 4]	[6 5 2]
13	3	3	21	16	7	[3 1 6]	[9 8 3 0 0 1 10 0 0]	[4 -1 2 3 1 1 14 14 16]
14	3	5	7	12	11	21	6	[-137 -113 -30 -165 -107 -65 -35 -170 -38]	[-152 -195 -81 -78 -74 -177 -106 -113 -167]	[-104 -66 -89 -90 -53 -45 -24 -56 -47]	[6 9 7]	[-144 -149 -177 -99 -156 -53 -159 -177 -125]
15	3	1	21	[10 1 3]
16	3	1	21	[1 9 10]
17	3	1	21	[9 1 4]
18	3	2	9	21	[-109 -128 -53 -104 -142 -161 -103 -65 -48]	[2 6 3]
19	3	1	21	[9 1 1]
20	3	1	21	[3 9 6]
21	1	0
0	1	0	0	0	0	0	0	0	0
1	1	2	3	4	5	1	4	5	2
	2	4	3	4	5	1	4	5	2
	3	6	3	4	5	1	4	5	2
2	1	3	1	4	3	1	1	2	4
	2	4	1	4	3	1	1	2	4
	3	4	1	4	3	1	1	2	4
3	1	2	2	4	5	4	3	4	5
	2	8	2	4	5	4	3	4	5
	3	1	2	4	5	4	3	4	5
4	1	6	2	4	2	5	5	3	4
	2	5	2	4	2	5	5	3	4
	3	9	2	4	2	5	5	3	4
5	1	7	2	2	1	1	4	2	1
	2	9	2	2	1	1	4	2	1
	3	9	2	2	1	1	4	2	1
6	1	2	5	3	4	3	3	4	1
	2	2	5	3	4	3	3	4	1
	3	8	5	3	4	3	3	4	1
7	1	4	2	5	1	1	2	2	1
	2	1	2	5	1	1	2	2	1
	3	6	2	5	1	1	2	2	1
8	1	2	4	4	3	1	4	5	4
	2	8	4	4	3	1	4	5	4
	3	3	4	4	3	1	4	5	4
9	1	5	1	4	2	4	2	1	3
	2	8	1	4	2	4	2	1	3
	3	7	1	4	2	4	2	1	3
10	1	7	2	2	3	3	2	3	5
	2	6	2	2	3	3	2	3	5
	3	3	2	2	3	3	2	3	5
11	1	1	2	5	4	1	3	3	5
	2	6	2	5	4	1	3	3	5
	3	7	2	5	4	1	3	3	5
12	1	6	2	1	1	2	5	1	5
	2	5	2	1	1	2	5	1	5
	3	2	2	1	1	2	5	1	5
13	1	3	4	2	1	1	2	4	2
	2	1	4	2	1	1	2	4	2
	3	6	4	2	1	1	2	4	2
14	1	6	2	2	5	3	1	2	5
	2	9	2	2	5	3	1	2	5
	3	7	2	2	5	3	1	2	5
15	1	10	2	4	2	4	3	1	5
	2	1	2	4	2	4	3	1	5
	3	3	2	4	2	4	3	1	5
16	1	1	4	3	1	1	5	1	5
	2	9	4	3	1	1	5	1	5
	3	10	4	3	1	1	5	1	5
17	1	9	5	5	2	5	1	2	5
	2	1	5	5	2	5	1	2	5
	3	4	5	5	2	5	1	2	5
18	1	2	2	4	1	1	4	2	4
	2	6	2	4	1	1	4	2	4
	3	3	2	4	1	1	4	2	4
19	1	9	2	1	2	5	5	5	3
	2	1	2	1	2	5	5	5	3
	3	1	2	1	2	5	5	5	3
20	1	3	3	1	2	1	5	5	5
	2	9	3	1	2	1	5	5	5
	3	6	3	1	2	1	5	5	5
21	1	0	0	0	0	0	0	0	0
29	35	28	27	35	57	131
